NAME: I820-n25-k5
COMMENT : (Fake et al, No of trucks: 5, Optimal value: )
TYPE : CVRP
DIMENSION : 25
EDGE_WEIGHT_TYPE : EUC_2D
CAPACITY : 13
NODE_COORD_SECTION
1 130 20
2 814 871
3 940 623
4 600 906
5 260 650
6 217 661
7 314 486
8 645 509
9 673 172
10 695 393
11 677 347
12 340 269
13 655 745
14 474 47
15 877 265
16 680 782
17 195 664
18 307 574
19 899 295
20 219 861
21 336 227
22 737 839
23 543 872
24 477 359
25 215 862
DEMAND_SECTION
1 0
2 2
3 1
4 2
5 4
6 2
7 1
8 1
9 4
10 1
11 3
12 4
13 1
14 3
15 4
16 1
17 1
18 1
19 1
20 4
21 2
22 2
23 2
24 4
25 2
DEPOT_SECTION
 1
 -1
 EOF 